RAW/XY/fspd/X-n101-k25.vrp_seed-4.out
19868	15.794	19.25
