RAW/XY/fspd/X-n101-k25.vrp_seed-4.sol
Route #1: 50 79 11 85 30 75
Route #2: 8 56 94
Route #3: 52 83 97
Route #4: 32 95 31 24 46 5
Route #5: 81 51 71 62 91
Route #6: 76 55 74 13 18 12
Route #7: 21 100 61 19 23
Route #8: 93 33 53 73
Route #9: 63 42 65 10 25 39 4
Route #10: 96 59 60 67 88 40
Route #11: 35 20 41 22 15 17 80
Route #12: 7 2 45 49 78 72 87 48 26 38 27
Route #13: 69 16 9 86 70 1
Route #14: 68 54 92 90 84 66 58
Route #15: 34 64 3 82 28 14 77 44
Route #16: 57 6 37 36 29 43 47 89 98 99
Cost 19868.000000